23
8
5 13 20 22 10 1 4 12 19 17 11
2 19 9 6 8 12 5 13 18 4 1 21 22 0 15 16
4 1 10 13 5 12 6 3 18
8 11 3 2 20 0 10 12 13 1 6 5
19 9 1 4
13 7 9 5 12 2 3 17 22 16 6 0 20 1 18 10 11 15 14 21 4 8 19
2 9 19 1 16 18 7 8 14
17 22 8 20 16 1 19 21 3 6 10 12
